
Gurobi 7.5.2 (linux64, Python) logging started Sat Apr 20 19:31:31 2019

Academic license - for non-commercial use only

Gurobi 7.5.2 (linux64, Python) logging started Sat Apr 20 19:32:58 2019

Academic license - for non-commercial use only

Gurobi 7.5.2 (linux64, Python) logging started Sat Apr 20 19:34:35 2019

Academic license - for non-commercial use only

Gurobi 7.5.2 (linux64, Python) logging started Sat Apr 20 19:35:19 2019

Academic license - for non-commercial use only

Gurobi 7.5.2 (linux64, Python) logging started Sat Apr 20 20:35:18 2019

Academic license - for non-commercial use only

Gurobi 7.5.2 (linux64, Python) logging started Sat Apr 20 20:37:04 2019

Academic license - for non-commercial use only

Gurobi 7.5.2 (linux64, Python) logging started Sat Apr 20 20:38:25 2019

Academic license - for non-commercial use only

Gurobi 7.5.2 (linux64, Python) logging started Sat Apr 20 20:40:13 2019

Academic license - for non-commercial use only

Gurobi 7.5.2 (linux64, Python) logging started Sat Apr 20 20:40:31 2019

Academic license - for non-commercial use only

Gurobi 7.5.2 (linux64, Python) logging started Sat Apr 20 20:42:49 2019

Academic license - for non-commercial use only

Gurobi 7.5.2 (linux64, Python) logging started Sat Apr 20 20:43:30 2019

Academic license - for non-commercial use only

Gurobi 7.5.2 (linux64, Python) logging started Sat Apr 20 20:45:56 2019

Academic license - for non-commercial use only

Gurobi 7.5.2 (linux64, Python) logging started Sat Apr 20 20:46:21 2019

Academic license - for non-commercial use only

Gurobi 7.5.2 (linux64, Python) logging started Mon Apr 22 16:28:13 2019

Academic license - for non-commercial use only

Gurobi 7.5.2 (linux64, Python) logging started Mon Apr 22 16:33:22 2019

Academic license - for non-commercial use only

Gurobi 7.5.2 (linux64, Python) logging started Mon Apr 22 16:35:45 2019

Academic license - for non-commercial use only

Gurobi 7.5.2 (linux64, Python) logging started Mon Apr 22 18:01:29 2019

Academic license - for non-commercial use only

Gurobi 7.5.2 (linux64, Python) logging started Mon Apr 22 18:02:17 2019

Academic license - for non-commercial use only

Gurobi 7.5.2 (linux64, Python) logging started Mon Apr 22 18:10:27 2019

Academic license - for non-commercial use only

Gurobi 7.5.2 (linux64, Python) logging started Mon Apr 22 18:15:22 2019

Academic license - for non-commercial use only

Gurobi 7.5.2 (linux64, Python) logging started Mon Apr 22 18:18:33 2019

Academic license - for non-commercial use only

Gurobi 7.5.2 (linux64, Python) logging started Mon Apr 22 18:41:23 2019

Academic license - for non-commercial use only

Gurobi 7.5.2 (linux64, Python) logging started Mon Apr 22 18:48:56 2019

Academic license - for non-commercial use only

Gurobi 7.5.2 (linux64, Python) logging started Mon Apr 22 20:13:59 2019

Academic license - for non-commercial use only

Gurobi 7.5.2 (linux64, Python) logging started Mon Apr 22 20:16:29 2019

Academic license - for non-commercial use only

Gurobi 7.5.2 (linux64, Python) logging started Mon Apr 22 20:41:10 2019

Academic license - for non-commercial use only

Gurobi 7.5.2 (linux64, Python) logging started Mon Apr 22 20:44:12 2019

Academic license - for non-commercial use only

Gurobi 7.5.2 (linux64, Python) logging started Mon Apr 22 21:18:22 2019

Academic license - for non-commercial use only

Gurobi 7.5.2 (linux64, Python) logging started Mon Apr 22 21:20:45 2019

Academic license - for non-commercial use only

Gurobi 7.5.2 (linux64, Python) logging started Tue Apr 23 17:11:45 2019

Academic license - for non-commercial use only

Gurobi 7.5.2 (linux64, Python) logging started Wed Apr 24 15:52:16 2019

Academic license - for non-commercial use only

Gurobi 7.5.2 (linux64, Python) logging started Wed Apr 24 15:57:52 2019

Academic license - for non-commercial use only

Gurobi 7.5.2 (linux64, Python) logging started Wed Apr 24 16:31:33 2019

Academic license - for non-commercial use only

Gurobi 7.5.2 (linux64, Python) logging started Wed Apr 24 16:33:23 2019

Academic license - for non-commercial use only

Gurobi 7.5.2 (linux64, Python) logging started Wed Apr 24 16:35:11 2019

Academic license - for non-commercial use only

Gurobi 7.5.2 (linux64, Python) logging started Wed Apr 24 16:50:30 2019

Academic license - for non-commercial use only

Gurobi 7.5.2 (linux64, Python) logging started Wed Apr 24 16:57:39 2019

Academic license - for non-commercial use only

Gurobi 7.5.2 (linux64, Python) logging started Wed Apr 24 17:23:20 2019

Academic license - for non-commercial use only

Gurobi 7.5.2 (linux64, Python) logging started Thu Apr 25 13:05:04 2019

Academic license - for non-commercial use only

Gurobi 7.5.2 (linux64, Python) logging started Thu Apr 25 14:06:32 2019

Academic license - for non-commercial use only

Gurobi 7.5.2 (linux64, Python) logging started Thu Apr 25 14:07:05 2019

Academic license - for non-commercial use only

Gurobi 7.5.2 (linux64, Python) logging started Thu Apr 25 14:22:00 2019

Academic license - for non-commercial use only

Gurobi 7.5.2 (linux64, Python) logging started Thu Apr 25 14:30:39 2019

Academic license - for non-commercial use only

Gurobi 7.5.2 (linux64, Python) logging started Thu Apr 25 14:35:05 2019

Academic license - for non-commercial use only

Gurobi 7.5.2 (linux64, Python) logging started Thu Apr 25 14:54:57 2019

Academic license - for non-commercial use only

Gurobi 7.5.2 (linux64, Python) logging started Thu Apr 25 16:09:48 2019

Academic license - for non-commercial use only

Gurobi 7.5.2 (linux64, Python) logging started Thu Apr 25 19:36:08 2019

Academic license - for non-commercial use only

Gurobi 7.5.2 (linux64, Python) logging started Thu Apr 25 20:05:57 2019

Academic license - for non-commercial use only

Gurobi 7.5.2 (linux64, Python) logging started Thu Apr 25 20:07:25 2019

Academic license - for non-commercial use only

Gurobi 7.5.2 (linux64, Python) logging started Thu Apr 25 20:08:19 2019

Academic license - for non-commercial use only

Gurobi 7.5.2 (linux64, Python) logging started Thu Apr 25 20:10:42 2019

Academic license - for non-commercial use only

Gurobi 7.5.2 (linux64, Python) logging started Thu Apr 25 20:11:31 2019

Academic license - for non-commercial use only

Gurobi 7.5.2 (linux64, Python) logging started Thu Apr 25 20:17:57 2019

Academic license - for non-commercial use only

Gurobi 7.5.2 (linux64, Python) logging started Fri Apr 26 10:55:38 2019

Academic license - for non-commercial use only

Gurobi 7.5.2 (linux64, Python) logging started Fri Apr 26 11:07:24 2019

Academic license - for non-commercial use only

Gurobi 7.5.2 (linux64, Python) logging started Fri Apr 26 11:11:29 2019

Academic license - for non-commercial use only

Gurobi 7.5.2 (linux64, Python) logging started Fri Apr 26 11:11:55 2019

Academic license - for non-commercial use only

Gurobi 7.5.2 (linux64, Python) logging started Fri Apr 26 12:02:26 2019

Academic license - for non-commercial use only

Gurobi 7.5.2 (linux64, Python) logging started Fri Apr 26 12:10:32 2019

Academic license - for non-commercial use only

Gurobi 7.5.2 (linux64, Python) logging started Fri Apr 26 12:11:16 2019

Academic license - for non-commercial use only

Gurobi 7.5.2 (linux64, Python) logging started Fri Apr 26 12:11:44 2019

Academic license - for non-commercial use only

Gurobi 7.5.2 (linux64, Python) logging started Fri Apr 26 12:12:09 2019

Academic license - for non-commercial use only

Gurobi 7.5.2 (linux64, Python) logging started Fri Apr 26 12:12:58 2019

Academic license - for non-commercial use only

Gurobi 7.5.2 (linux64, Python) logging started Fri Apr 26 12:13:30 2019

Academic license - for non-commercial use only

Gurobi 7.5.2 (linux64, Python) logging started Fri Apr 26 12:13:50 2019

Academic license - for non-commercial use only

Gurobi 7.5.2 (linux64, Python) logging started Fri Apr 26 12:13:56 2019

Academic license - for non-commercial use only

Gurobi 7.5.2 (linux64, Python) logging started Fri Apr 26 12:15:09 2019

Academic license - for non-commercial use only

Gurobi 7.5.2 (linux64, Python) logging started Fri Apr 26 12:48:32 2019

Academic license - for non-commercial use only

Gurobi 7.5.2 (linux64, Python) logging started Fri Apr 26 12:48:50 2019

Academic license - for non-commercial use only

Gurobi 7.5.2 (linux64, Python) logging started Fri Apr 26 12:49:48 2019

Academic license - for non-commercial use only

Gurobi 7.5.2 (linux64, Python) logging started Fri Apr 26 12:50:47 2019

Academic license - for non-commercial use only

Gurobi 7.5.2 (linux64, Python) logging started Fri Apr 26 12:51:18 2019

Academic license - for non-commercial use only

Gurobi 7.5.2 (linux64, Python) logging started Fri Apr 26 14:10:42 2019

Academic license - for non-commercial use only

Gurobi 7.5.2 (linux64, Python) logging started Fri Apr 26 14:12:12 2019

Academic license - for non-commercial use only

Gurobi 7.5.2 (linux64, Python) logging started Fri Apr 26 14:13:03 2019

Academic license - for non-commercial use only

Gurobi 7.5.2 (linux64, Python) logging started Fri Apr 26 14:24:52 2019

Academic license - for non-commercial use only

Gurobi 7.5.2 (linux64, Python) logging started Sat Apr 27 00:13:42 2019

Academic license - for non-commercial use only

Gurobi 7.5.2 (linux64, Python) logging started Sat Apr 27 00:15:29 2019

Academic license - for non-commercial use only

Gurobi 7.5.2 (linux64, Python) logging started Sat Apr 27 00:56:59 2019

Academic license - for non-commercial use only

Gurobi 7.5.2 (linux64, Python) logging started Sat Apr 27 18:44:45 2019

Academic license - for non-commercial use only

Gurobi 7.5.2 (linux64, Python) logging started Sat Apr 27 18:45:46 2019

Academic license - for non-commercial use only

Gurobi 7.5.2 (linux64, Python) logging started Sat Apr 27 18:48:27 2019

Academic license - for non-commercial use only

Gurobi 7.5.2 (linux64, Python) logging started Sat Apr 27 19:15:38 2019

Academic license - for non-commercial use only

Gurobi 7.5.2 (linux64, Python) logging started Sat Apr 27 22:15:41 2019

Academic license - for non-commercial use only

Gurobi 7.5.2 (linux64, Python) logging started Sat Apr 27 22:16:11 2019

Academic license - for non-commercial use only

Gurobi 7.5.2 (linux64, Python) logging started Sat Apr 27 22:17:45 2019

Academic license - for non-commercial use only

Gurobi 7.5.2 (linux64, Python) logging started Sat Apr 27 22:18:49 2019

Academic license - for non-commercial use only

Gurobi 7.5.2 (linux64, Python) logging started Sat Apr 27 22:22:05 2019

Academic license - for non-commercial use only

Gurobi 7.5.2 (linux64, Python) logging started Sat Apr 27 22:23:18 2019

Academic license - for non-commercial use only

Gurobi 7.5.2 (linux64, Python) logging started Sat Apr 27 22:25:27 2019

Academic license - for non-commercial use only

Gurobi 7.5.2 (linux64, Python) logging started Sat Apr 27 23:02:17 2019

Academic license - for non-commercial use only

Gurobi 7.5.2 (linux64, Python) logging started Sat Apr 27 23:03:51 2019

Academic license - for non-commercial use only

Gurobi 7.5.2 (linux64, Python) logging started Sat Apr 27 23:08:47 2019

Academic license - for non-commercial use only

Gurobi 7.5.2 (linux64, Python) logging started Sat Apr 27 23:12:04 2019

Academic license - for non-commercial use only

Gurobi 7.5.2 (linux64, Python) logging started Sat Apr 27 23:14:45 2019

Academic license - for non-commercial use only

Gurobi 7.5.2 (linux64, Python) logging started Sat Apr 27 23:18:35 2019

Academic license - for non-commercial use only

Gurobi 7.5.2 (linux64, Python) logging started Sat Apr 27 23:24:40 2019

Academic license - for non-commercial use only

Gurobi 7.5.2 (linux64, Python) logging started Tue Apr 30 13:03:17 2019

Academic license - for non-commercial use only

Gurobi 7.5.2 (linux64, Python) logging started Tue Apr 30 13:04:05 2019

Academic license - for non-commercial use only

Gurobi 7.5.2 (linux64, Python) logging started Tue Apr 30 13:04:37 2019

Academic license - for non-commercial use only

Gurobi 7.5.2 (linux64, Python) logging started Tue Apr 30 13:05:12 2019

Academic license - for non-commercial use only

Gurobi 7.5.2 (linux64, Python) logging started Tue Apr 30 13:06:05 2019

Academic license - for non-commercial use only

Gurobi 7.5.2 (linux64, Python) logging started Tue Apr 30 13:06:35 2019

Academic license - for non-commercial use only

Gurobi 7.5.2 (linux64, Python) logging started Tue Apr 30 13:55:32 2019

Academic license - for non-commercial use only

Gurobi 7.5.2 (linux64, Python) logging started Tue Apr 30 14:04:34 2019

Academic license - for non-commercial use only

Gurobi 7.5.2 (linux64, Python) logging started Tue Apr 30 14:19:48 2019

Academic license - for non-commercial use only

Gurobi 7.5.2 (linux64, Python) logging started Tue Apr 30 14:20:20 2019

Academic license - for non-commercial use only
